Set parameter TokenServer to value "hpc-licenses.hpcc.usc.edu"
Set parameter TimeLimit to value 3600
Gurobi Optimizer version 9.5.1 build v9.5.1rc2 (linux64)
Thread count: 20 physical cores, 20 logical processors, using up to 20 threads
Optimize a model with 6006 rows, 4529 columns and 23034 nonzeros
Model fingerprint: 0x92d01ebc
Variable types: 4506 continuous, 23 integer (23 binary)
Coefficient statistics:
  Matrix range     [1e+00, 1e+00]
  Objective range  [2e-04, 1e+00]
  Bounds range     [1e+00, 1e+00]
  RHS range        [1e+00, 1e+00]
Found heuristic solution: objective 279.0627894
Presolve removed 1520 rows and 1515 columns
Presolve time: 0.04s
Presolved: 4486 rows, 3014 columns, 20481 nonzeros
Variable types: 2994 continuous, 20 integer (20 binary)

Root relaxation: objective 2.910306e+02, 2347 iterations, 0.05 seconds (0.07 work units)

    Nodes    |    Current Node    |     Objective Bounds      |     Work
 Expl Unexpl |  Obj  Depth IntInf | Incumbent    BestBd   Gap | It/Node Time

     0     0  291.03058    0    2  279.06279  291.03058  4.29%     -    0s
H    0     0                     279.4664336  291.03058  4.14%     -    0s
     0     0  290.76727    0    2  279.46643  290.76727  4.04%     -    0s
     0     0  290.61462    0    2  279.46643  290.61462  3.99%     -    0s
     0     0  289.69506    0    2  279.46643  289.69506  3.66%     -    0s
H    0     0                     289.2596165  289.69506  0.15%     -    0s

Cutting planes:
  Gomory: 4
  MIR: 185
  Flow cover: 3
  RLT: 10
  Relax-and-lift: 17

Explored 1 nodes (2540 simplex iterations) in 0.40 seconds (0.27 work units)
Thread count was 20 (of 20 available processors)

Solution count 3: 289.26 279.466 279.063 

Optimal solution found (tolerance 1.00e-04)
Best objective 2.892596164832e+02, best bound 2.892596164832e+02, gap 0.0000%



#########node  1
V1.6
#########node  2
0.0,0.9999999999999998
#########node  3
1.0,0.0


Total Solving Time 0.732990026473999
obj value 289.2596164832021
Policy Regret train (Sum) 1.2397053270686504
Best Treatment Found train (%) 86.8
treatment classification acc train (%) 83.39999999999999
Policy Regret test (Sum) 26.7565594125534
Best Treatment Found test (%) 84.76
treatment classification acc test (%) 81.99
Set parameter TokenServer to value "hpc-licenses.hpcc.usc.edu"
Set parameter TimeLimit to value 3600
Gurobi Optimizer version 9.5.1 build v9.5.1rc2 (linux64)
Thread count: 20 physical cores, 20 logical processors, using up to 20 threads
Optimize a model with 6006 rows, 4529 columns and 23034 nonzeros
Model fingerprint: 0x92d01ebc
Variable types: 4506 continuous, 23 integer (23 binary)
Coefficient statistics:
  Matrix range     [1e+00, 1e+00]
  Objective range  [2e-04, 1e+00]
  Bounds range     [1e+00, 1e+00]
  RHS range        [1e+00, 1e+00]
Found heuristic solution: objective 279.0627894
Presolve removed 1520 rows and 1515 columns
Presolve time: 0.05s
Presolved: 4486 rows, 3014 columns, 20481 nonzeros
Variable types: 2994 continuous, 20 integer (20 binary)

Root relaxation: objective 2.910306e+02, 2347 iterations, 0.06 seconds (0.07 work units)

    Nodes    |    Current Node    |     Objective Bounds      |     Work
 Expl Unexpl |  Obj  Depth IntInf | Incumbent    BestBd   Gap | It/Node Time

     0     0  291.03058    0    2  279.06279  291.03058  4.29%     -    0s
H    0     0                     279.4664336  291.03058  4.14%     -    0s
     0     0  290.76727    0    2  279.46643  290.76727  4.04%     -    0s
     0     0  290.61462    0    2  279.46643  290.61462  3.99%     -    0s
     0     0  289.69506    0    2  279.46643  289.69506  3.66%     -    0s
H    0     0                     289.2596165  289.69506  0.15%     -    0s

Cutting planes:
  Gomory: 4
  MIR: 185
  Flow cover: 3
  RLT: 10
  Relax-and-lift: 17

Explored 1 nodes (2540 simplex iterations) in 0.41 seconds (0.27 work units)
Thread count was 20 (of 20 available processors)

Solution count 3: 289.26 279.466 279.063 

Optimal solution found (tolerance 1.00e-04)
Best objective 2.892596164832e+02, best bound 2.892596164832e+02, gap 0.0000%



#########node  1
V1.6
#########node  2
0.0,0.9999999999999998
#########node  3
1.0,0.0


Total Solving Time 0.8102889060974121
obj value 289.2596164832021
Policy Regret train (Sum) 1.2397053270686504
Best Treatment Found train (%) 86.8
treatment classification acc train (%) 83.39999999999999
Policy Regret test (Sum) 26.7565594125534
Best Treatment Found test (%) 84.76
treatment classification acc test (%) 81.99
